NAME          ClpDefau  FREE
ROWS
 N  OBJROW
 L  ZMUNI1_PCT
 L  ZMUNI2_PCT
 L  ZMUNI3_PCT
 L  ZMUNI4_PCT
 L  ZMUNI5_PCT
 L  ZMUNI6_PCT
 L  ZMUNI7_PCT
 L  ZMUNI8_PCT
 L  ZMUNI9_PCT
COLUMNS
    QMUNI1 OBJROW 1.          
    QMUNI1 ZMUNI1_PCT 29554.1763  
    QMUNI1 ZMUNI2_PCT 2210.2356   
    QMUNI1 ZMUNI3_PCT 5269.9089   
    QMUNI1 ZMUNI4_PCT 3644.9433   
    QMUNI1 ZMUNI5_PCT 568.7714    
    QMUNI1 ZMUNI6_PCT 843.811     
    QMUNI1 ZMUNI7_PCT 2250.14686  
    QMUNI1 ZMUNI8_PCT 1952.922344 
    QMUNI1 ZMUNI9_PCT 1335.5255   
    QMUNI2 OBJROW 1.          
    QMUNI2 ZMUNI1_PCT 2160.0723   
    QMUNI2 ZMUNI2_PCT 33066.2727  
    QMUNI2 ZMUNI3_PCT 3026.3901   
    QMUNI2 ZMUNI4_PCT 2999.878    
    QMUNI2 ZMUNI5_PCT  -55.6945   
    QMUNI2 ZMUNI6_PCT 89.2639     
    QMUNI2 ZMUNI7_PCT 1253.10421  
    QMUNI2 ZMUNI8_PCT 1537.418365 
    QMUNI2 ZMUNI9_PCT 1722.3358   
    QMUNI3 OBJROW 1.          
    QMUNI3 ZMUNI1_PCT 5013.4659   
    QMUNI3 ZMUNI2_PCT 2840.6143   
    QMUNI3 ZMUNI3_PCT 30243.0153  
    QMUNI3 ZMUNI4_PCT 5531.3111   
    QMUNI3 ZMUNI5_PCT  -10.8719   
    QMUNI3 ZMUNI6_PCT 155.6397    
    QMUNI3 ZMUNI7_PCT 1240.58723  
    QMUNI3 ZMUNI8_PCT 1203.137636 
    QMUNI3 ZMUNI9_PCT 629.2343    
    QMUNI4 OBJROW 1.          
    QMUNI4 ZMUNI1_PCT 4104.9957   
    QMUNI4 ZMUNI2_PCT 3387.4511   
    QMUNI4 ZMUNI3_PCT 6513.6909   
    QMUNI4 ZMUNI4_PCT 95203.7812  
    QMUNI4 ZMUNI5_PCT 44.632      
    QMUNI4 ZMUNI6_PCT 190.3534    
    QMUNI4 ZMUNI7_PCT 1122.30778  
    QMUNI4 ZMUNI8_PCT 1157.277822 
    QMUNI4 ZMUNI9_PCT 822.258     
    QMUNI5 OBJROW 1.          
    QMUNI5 ZMUNI1_PCT 357.8186    
    QMUNI5 ZMUNI2_PCT 196.2662    
    QMUNI5 ZMUNI3_PCT 288.5818    
    QMUNI5 ZMUNI4_PCT 233.841     
    QMUNI5 ZMUNI5_PCT 29738.9984  
    QMUNI5 ZMUNI6_PCT 3545.3796   
    QMUNI5 ZMUNI7_PCT 574.61262   
    QMUNI5 ZMUNI8_PCT 427.120924  
    QMUNI5 ZMUNI9_PCT 347.7097    
    QMUNI6 OBJROW 1.          
    QMUNI6 ZMUNI1_PCT 26.8936     
    QMUNI6 ZMUNI2_PCT  -161.9339  
    QMUNI6 ZMUNI3_PCT  -67.0433   
    QMUNI6 ZMUNI4_PCT  -79.7271   
    QMUNI6 ZMUNI5_PCT 2300.644    
    QMUNI6 ZMUNI6_PCT 30849.8383  
    QMUNI6 ZMUNI7_PCT  -386.04736 
    QMUNI6 ZMUNI8_PCT  -639.361143
    QMUNI6 ZMUNI9_PCT  -920.105   
    QMUNI7 OBJROW 1.          
    QMUNI7 ZMUNI1_PCT 1414.299    
    QMUNI7 ZMUNI2_PCT 520.9923    
    QMUNI7 ZMUNI3_PCT 1113.5101   
    QMUNI7 ZMUNI4_PCT 753.0213    
    QMUNI7 ZMUNI5_PCT 63.8962     
    QMUNI7 ZMUNI6_PCT 281.9061    
    QMUNI7 ZMUNI7_PCT 25154.90055 
    QMUNI7 ZMUNI8_PCT 1574.05138  
    QMUNI7 ZMUNI9_PCT  -312.2329  
    QMUNI8 OBJROW 1.          
    QMUNI8 ZMUNI1_PCT 957.2983    
    QMUNI8 ZMUNI2_PCT 629.7111    
    QMUNI8 ZMUNI3_PCT 921.2494    
    QMUNI8 ZMUNI4_PCT 646.9727    
    QMUNI8 ZMUNI5_PCT  -432.2052  
    QMUNI8 ZMUNI6_PCT  -363.1592  
    QMUNI8 ZMUNI7_PCT 1147.69936  
    QMUNI8 ZMUNI8_PCT 23926.985264
    QMUNI8 ZMUNI9_PCT  -123.024   
    QMUNI9 OBJROW 1.          
    QMUNI9 ZMUNI1_PCT 669.0979    
    QMUNI9 ZMUNI2_PCT 1013.9465   
    QMUNI9 ZMUNI3_PCT 765.9912    
    QMUNI9 ZMUNI4_PCT 645.8283    
    QMUNI9 ZMUNI5_PCT 327.1103    
    QMUNI9 ZMUNI6_PCT 368.1183    
    QMUNI9 ZMUNI7_PCT 925.44556   
    QMUNI9 ZMUNI8_PCT 1438.468694 
    QMUNI9 ZMUNI9_PCT 25777.0539  
RHS
    RHS ZMUNI1_PCT 1.5997948495
    RHS ZMUNI2_PCT  -0.36167381
    RHS ZMUNI3_PCT  -0.40695002
    RHS ZMUNI4_PCT 2.4271943893
    RHS ZMUNI5_PCT 0.4325306447
    RHS ZMUNI6_PCT 1.9315155571
    RHS ZMUNI7_PCT  -0.4153725 
    RHS ZMUNI8_PCT  -0.83330503
    RHS ZMUNI9_PCT 0.3728125345
BOUNDS
 LO BOUND QMUNI1 -0.002099122
 UP BOUND QMUNI1      1.1e+10
 LO BOUND QMUNI2 -0.001282542
 UP BOUND QMUNI2      1.1e+10
 LO BOUND QMUNI3 -0.001335013
 UP BOUND QMUNI3      1.1e+10
 LO BOUND QMUNI4 -0.000619672
 UP BOUND QMUNI4      1.1e+10
 LO BOUND QMUNI5 -0.001769509
 UP BOUND QMUNI5      1.1e+10
 LO BOUND QMUNI6 -0.002102967
 UP BOUND QMUNI6      1.1e+10
 LO BOUND QMUNI7 -0.001009869
 UP BOUND QMUNI7      1.1e+10
 LO BOUND QMUNI8 -0.001105823
 UP BOUND QMUNI8      1.1e+10
 LO BOUND QMUNI9 -0.002402117
 UP BOUND QMUNI9      1.1e+10
ENDATA
